p cnf 50 173
2 4 5 6 7 8 9 0
-2 -4 0
-2 -5 0
-2 -6 0
-2 -7 0
-2 -8 0
-2 -9 0
-4 -5 0
-4 -6 0
-4 -7 0
-4 -8 0
-4 -9 0
-5 -6 0
-5 -7 0
-5 -8 0
-5 -9 0
-7 -8 0
-7 -9 0
-8 -9 0
11 13 14 15 16 17 18 0
-11 -13 0
-11 -14 0
-11 -15 0
-11 -16 0
-11 -17 0
-11 -18 0
-13 -14 0
-13 -15 0
-13 -16 0
-13 -17 0
-13 -18 0
-14 -15 0
-14 -16 0
-14 -17 0
-14 -18 0
-16 -17 0
-16 -18 0
-17 -18 0
20 22 23 24 25 26 27 0
-20 -22 0
-20 -23 0
-20 -24 0
-20 -25 0
-20 -26 0
-20 -27 0
-22 -23 0
-22 -24 0
-22 -25 0
-22 -26 0
-22 -27 0
-23 -24 0
-23 -25 0
-23 -26 0
-23 -27 0
-25 -26 0
-25 -27 0
-26 -27 0
29 31 32 33 34 35 36 0
-29 -31 0
-29 -32 0
-29 -33 0
-29 -34 0
-29 -35 0
-29 -36 0
-31 -32 0
-31 -33 0
-31 -34 0
-31 -35 0
-31 -36 0
-32 -33 0
-32 -34 0
-32 -35 0
-32 -36 0
-34 -35 0
-34 -36 0
-35 -36 0
38 40 41 42 43 44 45 0
-38 -40 0
-38 -41 0
-38 -42 0
-38 -43 0
-38 -44 0
-38 -45 0
-40 -41 0
-40 -42 0
-40 -43 0
-40 -44 0
-40 -45 0
-41 -42 0
-41 -43 0
-41 -44 0
-41 -45 0
-43 -44 0
-43 -45 0
-44 -45 0
-1 13 11 14 0
-2 14 13 15 0
-3 15 11 14 0
-4 16 14 17 0
-5 11 17 13 16 15 18 0
-6 18 14 17 0
-7 13 17 0
-8 14 16 18 0
-9 15 17 0
-10 22 20 23 0
-11 23 22 24 0
-12 24 20 23 0
-13 25 23 26 0
-14 20 26 22 25 24 27 0
-15 27 23 26 0
-16 22 26 0
-17 23 25 27 0
-18 24 26 0
-19 31 29 32 0
-20 32 31 33 0
-21 33 29 32 0
-22 34 32 35 0
-23 29 35 31 34 33 36 0
-24 36 32 35 0
-25 31 35 0
-26 32 34 36 0
-27 33 35 0
-28 40 38 41 0
-29 41 40 42 0
-30 42 38 41 0
-31 43 41 44 0
-32 38 44 40 43 42 45 0
-33 45 41 44 0
-34 40 44 0
-35 41 43 45 0
-36 42 44 0
-2 -11 0
-2 -20 0
-2 -29 0
-2 -38 0
-11 -20 0
-11 -29 0
-11 -38 0
-20 -29 0
-20 -38 0
-29 -38 0
-4 -13 0
-4 -22 0
-4 -31 0
-4 -40 0
-13 -22 0
-13 -31 0
-13 -40 0
-22 -31 0
-22 -40 0
-31 -40 0
-7 -16 0
-7 -25 0
-7 -34 0
-7 -43 0
-16 -25 0
-16 -34 0
-16 -43 0
-25 -34 0
-25 -43 0
-34 -43 0
-8 -17 0
-8 -26 0
-8 -35 0
-8 -44 0
-17 -26 0
-17 -35 0
-17 -44 0
-26 -35 0
-26 -44 0
-35 -44 0
4 0
50 0
